c 2 __LINUXTHREADS_OLD__
c 1 __UCLIBC_HAS_THREADS_NATIVE__
c 3 __UCLIBC_HAS_STDIO_BUFSIZ_NONE__
c 6 __UCLIBC_HAS_FLOATS__
c 7 __LINUXTHREADS_NEW__
c 5 __UCLIBC_SUSV3_LEGACY__
c 4 __UCLIBC_HAS_THREADS__
p cnf 7 1
-6 1 2 3 -4 -5 7 1
